nNurses = 58;
nHours = 38;
minHours = 3;
maxHours = 13;
maxConsec = 6;
maxPresence = 34;
demand = [9, 10, 7, 9, 8, 6, 7, 9, 8, 5, 10, 6, 7, 6, 8, 7, 10, 5, 7, 9, 12, 11, 10, 6, 8, 13, 18, 17, 17, 18, 15, 15, 13, 15, 10, 7, 11, 9];
